25
Properties=species:S:1:pos:R:3:initial_magmoms:R:1 pbc="F F F"
C       -0.00000000      -0.00003113      -0.00597567       0.00000000
C        1.25259855       0.72349894      -2.05113767       0.00000000
C       -1.25259855       0.72349894      -2.05113767       0.00000000
C       -0.00000000      -1.44672450      -2.05190816       0.00000000
C        1.24992267       0.72167106      -0.51937892       1.00000000
C       -1.24992267       0.72167106      -0.51937892       0.00000000
C       -0.00000000      -1.44321086      -0.52008603       0.00000000
C       -1.24970967      -0.72147736      -2.56063466       0.00000000
C        1.24970967      -0.72147736      -2.56063466       0.00000000
C       -0.00000000       1.44343639      -2.56004646       0.00000000
H        0.00000000      -0.00022226       1.09664251       0.00000000
H        2.15295450       1.24299687      -2.41890914       0.00000000
H       -2.15295450       1.24299687      -2.41890914       0.00000000
H       -0.00000000      -2.48643501      -2.41902418       0.00000000
H        1.27264153       1.75696793      -0.13935137       0.00000000
H       -2.15768516       0.22300358      -0.14005086       0.00000000
H       -1.27264153       1.75696793      -0.13935137       0.00000000
H       -0.88521581      -1.98043091      -0.13988410       0.00000000
H        0.88521581      -1.98043091      -0.13988410       0.00000000
H       -1.27266562      -0.73478007      -3.66338885       0.00000000
H       -2.15750874      -1.24536981      -2.21702825       0.00000000
H        1.27266562      -0.73478007      -3.66338885       0.00000000
H        2.15750874      -1.24536981      -2.21702825       0.00000000
H        0.00000000       1.46917515      -3.66279423       0.00000000
H        0.00000000       2.49185176      -2.21728013       0.00000000
