25
Properties=species:S:1:pos:R:3:initial_magmoms:R:1:forces:R:3 energy=-10594.866110320674 pbc="F F F"
C       -0.01826215       0.02920370      -0.00523956       0.00000000       0.01563379       0.01226435      -0.00295615
C        1.23539948       0.75529595      -2.05198981       0.00000000       0.00135042       0.00507678       0.02034658
C       -1.27698207       0.72053687      -2.06670516       0.00000000      -0.00993681      -0.02348329      -0.01409376
C        0.00185017      -1.43237470      -2.04737287       0.00000000       0.02121874       0.00279746       0.01329130
C        1.16669933       0.75734902      -0.55732689       1.00000000      -0.00162013      -0.01483727      -0.00566541
C       -1.29369945       0.72163212      -0.53374832       0.00000000      -0.00932900       0.00855277      -0.01683531
C       -0.00005749      -1.42310774      -0.51552724       0.00000000       0.00241348       0.00228668       0.02352203
C       -1.25515767      -0.72721544      -2.56621648       0.00000000       0.00501308      -0.02638446      -0.00683396
C        1.24864235      -0.70021231      -2.55354107       0.00000000       0.02016732       0.01373893      -0.00492939
C       -0.03452738       1.45098791      -2.58930810       0.00000000      -0.02131964       0.00228446       0.00285362
H       -0.01524513       0.04253123       1.09646645       0.00000000       0.00110114      -0.00080878      -0.00860427
H        2.13216324       1.28600144      -2.40991962       0.00000000      -0.00688783      -0.00402119       0.00464820
H       -2.18246315       1.22704422      -2.44173512       0.00000000       0.00425759      -0.00303051       0.00209301
H        0.01685466      -2.47495385      -2.40752512       0.00000000      -0.00057537       0.00627282       0.00107276
H        1.70586763       1.50016548       0.03653482       0.00000000       0.00425184      -0.00359457       0.00171605
H       -2.18821468       0.18750273      -0.16828534       0.00000000      -0.00842199       0.01505212       0.00945024
H       -1.35145416       1.75377102      -0.15092387       0.00000000       0.01029365       0.00823687       0.00477494
H       -0.87757733      -1.96923029      -0.12975048       0.00000000      -0.02184584      -0.00067835      -0.00478698
H        0.89658402      -1.93824617      -0.13473144       0.00000000       0.00284468      -0.01541417       0.01076708
H       -1.27339183      -0.74870836      -3.66896153       0.00000000      -0.00254620      -0.00204154      -0.01177904
H       -2.15680238      -1.26004077      -2.21989358       0.00000000      -0.01035670      -0.00664090      -0.00164674
H        1.28431269      -0.71976820      -3.65602352       0.00000000      -0.01541656       0.00539427      -0.01675308
H        2.15644413      -1.20820113      -2.19003442       0.00000000       0.01513290      -0.00757784      -0.00930340
H       -0.02898542       1.43960799      -3.69339663       0.00000000      -0.00129381       0.02024051      -0.00209668
H       -0.04968254       2.50742572      -2.27479425       0.00000000       0.00587128       0.00631486       0.01174837
