7
Properties=species:S:1:pos:R:3:forces:R:3 energy=-3167.999605474394 pbc="F F F"
C        0.00000137      -0.00000000       0.01450303       0.00000589       0.00000000      -0.00009834
C       -0.00000852       0.00000000       1.46764584      -0.00000610      -0.00000000       0.00077846
C       -0.00000422      -0.00000000       2.67832917      -0.00001767      -0.00000000      -0.00051763
H       -0.00000063       0.00000000       3.75231768      -0.00000707       0.00000000      -0.00002533
H        1.02757510      -0.00000000      -0.38092626       0.00016225      -0.00000000      -0.00003950
H       -0.51378154       0.88990767      -0.38093473      -0.00006865       0.00013284      -0.00004883
H       -0.51378154      -0.88990767      -0.38093473      -0.00006865      -0.00013284      -0.00004883
