4
Properties=species:S:1:pos:R:3:forces:R:3 energy=-2099.8916246802764 pbc="F F F"
H        0.00000000      -0.00000000      -1.07962190       0.00000000      -0.00000000       0.01647739
C       -0.00000000      -0.00000000      -0.00427191      -0.00000000       0.00000000      -0.01408607
C       -0.00000000       0.00000000       1.20427191      -0.00000000       0.00000000       0.01408607
H        0.00000000      -0.00000000       2.27962190       0.00000000      -0.00000000      -0.01647739
