4
Properties=species:S:1:pos:R:3:forces:R:3 energy=-2099.8913567031514 pbc="F F F"
H       -0.00000000       0.00000000      -1.07919406       0.00000000       0.00000000      -0.00066014
C        0.00000000      -0.00000000      -0.00425721      -0.00000000      -0.00000000       0.00061131
C       -0.00000000      -0.00000000       1.20425721      -0.00000000       0.00000000      -0.00061131
H       -0.00000000       0.00000000       2.27919406       0.00000000      -0.00000000       0.00066014
