26
Properties=species:S:1:pos:R:3:initial_magmoms:R:1 pbc="F F F"
C        0.00000000       0.00000000       0.00000000       0.00000000
C        1.25740473       0.72596296      -2.05333333       0.00000000
C       -1.25740473       0.72596296      -2.05333333       0.00000000
C        0.00000000      -1.45192592      -2.05333333       0.00000000
C        1.25740473       0.72596296      -0.51333333       0.00000000
C       -1.25740473       0.72596296      -0.51333333       0.00000000
C        0.00000000      -1.45192592      -0.51333333       0.00000000
C       -1.25740473      -0.72596296      -2.56666667       0.00000000
C        1.25740473      -0.72596296      -2.56666667       0.00000000
C        0.00000000       1.45192592      -2.56666667       0.00000000
H        0.00000000       0.00000000       1.09000000       0.00000000
H        2.14738601       1.23979389      -2.41666667       0.00000000
H       -2.14738601       1.23979389      -2.41666667       0.00000000
H        0.00000000      -2.47958778      -2.41666667       0.00000000
H        2.14738601       0.21213203      -0.15000000       0.00000000
H        1.25740473       1.75362482      -0.15000000       0.00000000
H       -2.14738601       0.21213203      -0.15000000       0.00000000
H       -1.25740473       1.75362482      -0.15000000       0.00000000
H       -0.88998127      -1.96575685      -0.15000000       0.00000000
H        0.88998127      -1.96575685      -0.15000000       0.00000000
H       -1.25740473      -0.72596296      -3.65666667       0.00000000
H       -2.14738601      -1.23979389      -2.20333333       0.00000000
H        1.25740473      -0.72596296      -3.65666667       0.00000000
H        2.14738601      -1.23979389      -2.20333333       0.00000000
H        0.00000000       1.45192592      -3.65666667       0.00000000
H        0.00000000       2.47958778      -2.20333333       0.00000000
