26
Properties=species:S:1:pos:R:3:initial_magmoms:R:1:forces:R:3 energy=-10612.983600531199 pbc="F F F"
C       -0.00000000      -0.00003113      -0.00597567       0.00000000       0.00000000      -0.00020798       0.00566281
C        1.25259855       0.72349894      -2.05113767       0.00000000       0.00445715       0.00271797      -0.00273185
C       -1.25259855       0.72349894      -2.05113767       0.00000000      -0.00445715       0.00271797      -0.00273185
C       -0.00000000      -1.44672450      -2.05190816       0.00000000      -0.00000000      -0.00445293      -0.00120273
C        1.24992267       0.72167106      -0.51937892       0.00000000       0.00891224       0.00403841       0.00630143
C       -1.24992267       0.72167106      -0.51937892       0.00000000      -0.00891224       0.00403841       0.00630143
C       -0.00000000      -1.44321086      -0.52008603       0.00000000       0.00000000      -0.00985215       0.00769991
C       -1.24970967      -0.72147736      -2.56063466       0.00000000      -0.00888862      -0.00494074      -0.00692397
C        1.24970967      -0.72147736      -2.56063466       0.00000000       0.00888862      -0.00494074      -0.00692397
C       -0.00000000       1.44343639      -2.56004646       0.00000000       0.00000000       0.01101212      -0.00732886
H        0.00000000      -0.00022226       1.09664251       0.00000000      -0.00000000      -0.00158585       0.00982379
H        2.15295450       1.24299687      -2.41890914       0.00000000       0.00786095       0.00506702      -0.00302958
H       -2.15295450       1.24299687      -2.41890914       0.00000000      -0.00786095       0.00506702      -0.00302958
H       -0.00000000      -2.48643501      -2.41902418       0.00000000      -0.00000000      -0.00732942      -0.00429524
H        2.15768516       0.22300358      -0.14005086       0.00000000       0.01224547      -0.01214244       0.00332114
H        1.27264153       1.75696793      -0.13935137       0.00000000      -0.00241418       0.01424609       0.00447668
H       -2.15768516       0.22300358      -0.14005086       0.00000000      -0.01224547      -0.01214244       0.00332114
H       -1.27264153       1.75696793      -0.13935137       0.00000000       0.00241418       0.01424609       0.00447668
H       -0.88521581      -1.98043091      -0.13988410       0.00000000      -0.01652511      -0.00513283       0.00193621
H        0.88521581      -1.98043091      -0.13988410       0.00000000       0.01652511      -0.00513283       0.00193621
H       -1.27266562      -0.73478007      -3.66338885       0.00000000       0.00185081       0.00275763      -0.01610901
H       -2.15750874      -1.24536981      -2.21702825       0.00000000      -0.01239542      -0.00640002       0.01066658
H        1.27266562      -0.73478007      -3.66338885       0.00000000      -0.00185081       0.00275763      -0.01610901
H        2.15750874      -1.24536981      -2.21702825       0.00000000       0.01239542      -0.00640002       0.01066658
H        0.00000000       1.46917515      -3.66279423       0.00000000      -0.00000000      -0.00309154      -0.01655836
H        0.00000000       2.49185176      -2.21728013       0.00000000      -0.00000000       0.01508556       0.01038342
