25
Properties=species:S:1:pos:R:3:initial_magmoms:R:1:forces:R:3 energy=-10594.90098564326 pbc="F F F"
C       -0.00000000      -0.00014618      -0.10286117       1.00000000       0.00000000      -0.00056755      -0.01341921
C        1.25814561       0.72682489      -2.05563823       0.00000000      -0.00516541      -0.00259080       0.01865013
C       -1.25814561       0.72682489      -2.05563823       0.00000000       0.00516541      -0.00259080       0.01865013
C       -0.00000000      -1.45303491      -2.05650170       0.00000000       0.00000000       0.00627441       0.01770284
C        1.25029102       0.72168006      -0.50685583       0.00000000      -0.00503719      -0.00342336       0.01385172
C       -1.25029102       0.72168006      -0.50685583       0.00000000       0.00503719      -0.00342336       0.01385172
C       -0.00000000      -1.44370578      -0.50772282       0.00000000       0.00000000       0.00570977       0.01309152
C       -1.25158453      -0.72244418      -2.55788087       0.00000000       0.00039356       0.00078834      -0.00558846
C        1.25158453      -0.72244418      -2.55788087       0.00000000      -0.00039356       0.00078834      -0.00558846
C        0.00000000       1.44572700      -2.55722078       0.00000000      -0.00000000      -0.00015237      -0.00508911
H        2.16049502       1.24747741      -2.42102191       0.00000000      -0.02204845      -0.01221656      -0.01234514
H       -2.16049502       1.24747741      -2.42102191       0.00000000       0.02204845      -0.01221656      -0.01234514
H       -0.00000000      -2.49491547      -2.42150561       0.00000000      -0.00000000       0.02592459      -0.01363466
H        2.15508747       0.21493819      -0.13072316       0.00000000      -0.01131406      -0.00806545       0.00614803
H        1.26494877       1.75827838      -0.12963429       0.00000000      -0.01063475      -0.00718272       0.00788865
H       -2.15508747       0.21493819      -0.13072316       0.00000000       0.01131406      -0.00806545       0.00614803
H       -1.26494877       1.75827838      -0.12963429       0.00000000       0.01063475      -0.00718272       0.00788865
H       -0.89067585      -1.97444691      -0.13072808       0.00000000      -0.00013086       0.01253504       0.00584120
H        0.89067585      -1.97444691      -0.13072808       0.00000000       0.00013086       0.01253504       0.00584120
H       -1.27297675      -0.73465489      -3.66037654       0.00000000      -0.01454384      -0.00760412      -0.02435664
H       -2.15995074      -1.24661482      -2.21501886       0.00000000       0.00059885       0.00088774       0.00172833
H        1.27297675      -0.73465489      -3.66037654       0.00000000       0.01454384      -0.00760412      -0.02435664
H        2.15995074      -1.24661482      -2.21501886       0.00000000      -0.00059885       0.00088774       0.00172833
H        0.00000000       1.46940118      -3.65973975       0.00000000       0.00000000       0.01671292      -0.02393246
H        0.00000000       2.49482017      -2.21533513       0.00000000       0.00000000      -0.00015799       0.00164544
