14
Temelso et al. 2006 SI; UCCSD(T)/cc-pVDZ; Angstrom converted from Bohr; doi:10.1021/jp061821e.s001; geometry seed only
H -1.480716449669 0.000000000000 0.000000000000
C -0.370318862827 0.000000000000 0.000000000000
C 0.105907240873 -0.730729152266 -1.265660021952
H 1.213035708494 -0.753519925707 -1.305134800322
H -0.255354251277 -1.776112852537 -1.285919836046
H -0.255354251277 -0.225582820788 -2.181118773505
C 0.105907240873 1.461458304533 0.000000000000
H 1.213035708494 1.507039856705 0.000000000000
H -0.255354251277 2.001695673326 -0.895198932167
H -0.255354251277 2.001695673326 0.895198932167
C 0.105907240873 -0.730729152266 1.265660021952
H 1.213035708494 -0.753519925707 1.305134800322
H -0.255354251277 -0.225582820788 2.181118773505
H -0.255354251277 -1.776112852537 1.285919836046
