17
Temelso et al. 2006 SI; UCCSD(T)/cc-pVDZ; Angstrom converted from Bohr; doi:10.1021/jp061821e.s001; geometry seed only
H 4.685178512705 0.000000000000 0.000000000000
C 3.606048118071 0.000000000000 0.000000000000
C 2.374397447590 0.000000000000 0.000000000000
H 0.161034409075 0.000000000000 0.000000000000
C -0.955147560937 0.000000000000 0.000000000000
C -1.421019248866 0.731781780990 -1.267483222655
H -2.528045109026 0.757306511446 -1.311693353876
H -1.056323634749 1.775847374914 -1.285041809343
H -1.056323634749 0.224955163699 -2.180449845885
C -1.421019248866 -1.463563556688 0.000000000000
H -2.528045109026 -1.514613022892 0.000000000000
H -1.056323634749 -2.000802538613 -0.895408036541
H -1.056323634749 -2.000802538613 0.895408036541
C -1.421019248866 0.731781780990 1.267483222655
H -2.528045109026 0.757306511446 1.311693353876
H -1.056323634749 0.224955163699 2.180449845885
H -1.056323634749 1.775847374914 1.285041809343
