13
Temelso et al. 2006 SI; UCCSD(T)/cc-pVDZ; Angstrom converted from Bohr; doi:10.1021/jp061821e.s001; geometry seed only
C -0.176116171247 0.000000000000 0.000000000000
C 0.033426256395 -0.745865758364 -1.291877392459
H 1.118625922042 -0.874565397251 -1.514791699578
H -0.408815785213 -1.759135646391 -1.252572670478
H -0.408815785213 -0.205191929499 -2.149742491414
C 0.033426256395 1.491731522019 0.000000000000
H 1.118625922042 1.749130789210 0.000000000000
H -0.408815785213 1.964327575890 -0.897169820937
H -0.408815785213 1.964327575890 0.897169820937
C 0.033426256395 -0.745865758364 1.291877392459
H 1.118625922042 -0.874565397251 1.514791699578
H -0.408815785213 -0.205191929499 2.149742491414
H -0.408815785213 -1.759135646391 1.252572670478
