53
Properties=species:S:1:pos:R:3:move_mask:L:1:initial_magmoms:R:1 candidate=finite_adamantane_ethynyl_h_abstraction endpoint=reactant total_charge=0 spin_multiplicity=2 unpaired_electrons=1 geometry_status=unoptimized_starting_guess pbc="F F F"
C        0.00000000       0.00000000       0.00000000  T       0.00000000
C        1.25740473       0.72596296      -2.05333333  T       0.00000000
C       -1.25740473       0.72596296      -2.05333333  T       0.00000000
C        0.00000000      -1.45192592      -2.05333333  T       0.00000000
C        1.25740473       0.72596296      -0.51333333  T       0.00000000
C       -1.25740473       0.72596296      -0.51333333  T       0.00000000
C        0.00000000      -1.45192592      -0.51333333  T       0.00000000
C       -1.25740473      -0.72596296      -2.56666667  F       0.00000000
C        1.25740473      -0.72596296      -2.56666667  F       0.00000000
C        0.00000000       1.45192592      -2.56666667  F       0.00000000
H        0.00000000       0.00000000       1.09000000  T       0.00000000
H        2.14738601       1.23979389      -2.41666667  T       0.00000000
H       -2.14738601       1.23979389      -2.41666667  T       0.00000000
H        0.00000000      -2.47958778      -2.41666667  T       0.00000000
H        2.14738601       0.21213203      -0.15000000  T       0.00000000
H        1.25740473       1.75362482      -0.15000000  T       0.00000000
H       -2.14738601       0.21213203      -0.15000000  T       0.00000000
H       -1.25740473       1.75362482      -0.15000000  T       0.00000000
H       -0.88998127      -1.96575685      -0.15000000  T       0.00000000
H        0.88998127      -1.96575685      -0.15000000  T       0.00000000
H       -1.25740473      -0.72596296      -3.65666667  T       0.00000000
H       -2.14738601      -1.23979389      -2.20333333  T       0.00000000
H        1.25740473      -0.72596296      -3.65666667  T       0.00000000
H        2.14738601      -1.23979389      -2.20333333  T       0.00000000
H        0.00000000       1.45192592      -3.65666667  T       0.00000000
H        0.00000000       2.47958778      -2.20333333  T       0.00000000
C       -0.20000000       0.00000000       3.80000000  T       1.00000000
C       -0.20000000       0.00000000       5.01000000  T       0.00000000
C       -0.20000000       0.00000000       6.47000000  T       0.00000000
C       -1.45740473      -0.72596296       8.52333333  T       0.00000000
C        1.05740473      -0.72596296       8.52333333  T       0.00000000
C       -0.20000000       1.45192592       8.52333333  T       0.00000000
C       -1.45740473      -0.72596296       6.98333333  T       0.00000000
C        1.05740473      -0.72596296       6.98333333  T       0.00000000
C       -0.20000000       1.45192592       6.98333333  T       0.00000000
C        1.05740473       0.72596296       9.03666667  F       0.00000000
C       -1.45740473       0.72596296       9.03666667  F       0.00000000
C       -0.20000000      -1.45192592       9.03666667  F       0.00000000
H       -2.34738601      -1.23979389       8.88666667  T       0.00000000
H        1.94738601      -1.23979389       8.88666667  T       0.00000000
H       -0.20000000       2.47958778       8.88666667  T       0.00000000
H       -2.34738601      -0.21213203       6.62000000  T       0.00000000
H       -1.45740473      -1.75362482       6.62000000  T       0.00000000
H        1.94738601      -0.21213203       6.62000000  T       0.00000000
H        1.05740473      -1.75362482       6.62000000  T       0.00000000
H        0.68998127       1.96575685       6.62000000  T       0.00000000
H       -1.08998127       1.96575685       6.62000000  T       0.00000000
H        1.05740473       0.72596296      10.12666667  T       0.00000000
H        1.94738601       1.23979389       8.67333333  T       0.00000000
H       -1.45740473       0.72596296      10.12666667  T       0.00000000
H       -2.34738601       1.23979389       8.67333333  T       0.00000000
H       -0.20000000      -1.45192592      10.12666667  T       0.00000000
H       -0.20000000      -2.47958778       8.67333333  T       0.00000000
